jobs  (incl. supersource/sink ):	102
RESOURCES
- renewable                 : 2 R
- nonrenewable              : 4 N
- doubly constrained        : 0 D
************************************************************************
PRECEDENCE RELATIONS:
jobnr.    #modes  #successors   successors
1	1	32		2 3 4 5 6 7 8 9 10 11 12 13 14 15 16 17 18 19 20 22 23 24 25 28 29 31 33 34 35 36 37 71 
2	3	17		100 85 84 70 64 63 62 60 56 53 52 47 46 43 39 32 30 
3	3	14		98 94 87 62 57 56 54 50 47 46 43 41 40 27 
4	3	21		101 100 99 92 91 90 86 84 83 67 66 65 62 60 56 54 53 48 45 43 41 
5	3	21		98 97 95 90 87 85 83 70 67 64 62 61 60 59 56 54 50 47 46 45 42 
6	3	20		100 95 90 88 84 83 70 68 63 62 61 60 59 58 55 54 53 51 47 42 
7	3	15		101 97 92 87 86 85 84 63 58 56 55 47 45 38 26 
8	3	17		100 97 95 90 87 70 68 64 63 61 60 53 47 45 43 42 40 
9	3	11		98 96 90 69 64 62 51 45 44 39 21 
10	3	9		100 98 90 66 61 60 43 40 21 
11	3	19		99 96 95 93 92 90 88 84 69 64 63 61 60 59 57 55 45 44 39 
12	3	19		100 99 93 92 91 90 86 84 82 68 66 65 62 60 59 54 51 41 40 
13	3	15		100 99 98 97 91 87 85 83 69 67 66 60 56 47 30 
14	3	14		101 96 86 83 69 66 63 62 59 53 51 50 46 45 
15	3	17		97 96 93 90 88 87 86 83 68 67 63 62 59 58 53 49 45 
16	3	20		97 95 93 90 88 87 86 84 81 80 78 75 70 69 67 66 61 60 58 44 
17	3	16		99 95 92 90 89 87 86 83 82 67 66 65 63 59 58 45 
18	3	17		99 98 91 89 88 87 86 84 83 74 69 68 67 59 58 54 47 
19	3	16		98 93 91 90 89 87 86 84 83 81 80 74 70 68 58 43 
20	3	15		97 96 95 92 91 86 85 84 82 78 74 69 66 58 38 
21	3	16		95 94 92 91 88 87 86 84 83 79 74 68 65 59 58 47 
22	3	13		99 91 90 88 87 83 82 68 67 64 59 49 45 
23	3	17		97 95 94 90 88 87 86 83 81 79 78 74 69 66 61 60 53 
24	3	16		99 98 94 93 90 88 86 80 79 78 76 74 66 63 60 51 
25	3	14		99 96 95 91 89 87 85 81 76 75 67 64 57 42 
26	3	18		99 96 95 94 93 91 90 88 82 81 80 79 74 68 66 61 60 59 
27	3	16		93 91 90 88 86 85 84 83 82 75 73 68 67 60 59 49 
28	3	15		98 95 92 90 87 85 83 79 78 70 66 62 59 58 47 
29	3	15		96 94 92 90 84 83 81 80 79 78 74 66 58 53 51 
30	3	12		96 95 93 92 90 89 88 86 82 59 58 45 
31	3	11		97 93 87 86 82 79 69 68 59 55 40 
32	3	9		95 88 87 83 82 76 66 58 45 
33	3	13		99 95 90 88 86 81 79 77 73 68 66 65 59 
34	3	12		97 92 88 86 80 79 75 67 66 63 62 59 
35	3	13		96 93 92 90 83 82 81 80 79 78 74 73 67 
36	3	10		97 94 93 89 86 81 79 76 64 62 
37	3	11		92 89 88 87 86 83 82 79 75 74 66 
38	3	11		98 90 88 83 81 80 79 77 76 75 72 
39	3	8		87 86 80 79 76 74 66 58 
40	3	8		83 81 80 76 75 74 72 58 
41	3	7		97 95 89 78 75 61 58 
42	3	8		92 86 82 79 74 73 69 66 
43	3	7		96 88 78 75 73 69 59 
44	3	8		94 91 89 79 77 74 73 72 
45	3	7		94 81 80 79 78 75 74 
46	3	6		99 77 76 73 72 68 
47	3	6		93 82 80 75 73 72 
48	3	6		93 89 87 81 74 72 
49	3	5		92 89 78 74 66 
50	3	4		88 81 74 58 
51	3	4		97 87 75 67 
52	3	4		91 78 67 66 
53	3	4		98 82 75 73 
54	3	4		96 81 76 75 
55	3	3		75 74 67 
56	3	3		79 77 73 
57	3	3		83 74 72 
58	3	2		77 73 
59	3	2		76 72 
60	3	2		89 77 
61	3	2		76 73 
62	3	2		74 73 
63	3	2		91 73 
64	3	2		80 73 
65	3	2		85 72 
66	3	1		72 
67	3	1		72 
68	3	1		78 
69	3	1		72 
70	3	1		82 
71	3	1		83 
72	3	1		102 
73	3	1		102 
74	3	1		102 
75	3	1		102 
76	3	1		102 
77	3	1		102 
78	3	1		102 
79	3	1		102 
80	3	1		102 
81	3	1		102 
82	3	1		102 
83	3	1		102 
84	3	1		102 
85	3	1		102 
86	3	1		102 
87	3	1		102 
88	3	1		102 
89	3	1		102 
90	3	1		102 
91	3	1		102 
92	3	1		102 
93	3	1		102 
94	3	1		102 
95	3	1		102 
96	3	1		102 
97	3	1		102 
98	3	1		102 
99	3	1		102 
100	3	1		102 
101	3	1		102 
102	1	0		
************************************************************************
REQUESTS/DURATIONS
jobnr.	mode	dur	R1	R2	N1	N2	N3	N4	
------------------------------------------------------------------------
1	1	0	0	0	0	0	0	0	
2	1	2	3	2	9	7	10	5	
	2	3	2	1	7	6	7	5	
	3	5	2	1	5	4	3	4	
3	1	1	5	3	5	9	9	9	
	2	5	5	3	5	7	7	6	
	3	7	5	2	5	6	6	4	
4	1	3	1	3	4	7	5	8	
	2	4	1	3	2	7	4	8	
	3	6	1	2	1	4	4	8	
5	1	3	3	3	6	9	6	2	
	2	4	3	2	4	9	5	2	
	3	6	3	1	4	8	4	2	
6	1	1	3	5	4	9	9	8	
	2	2	3	3	3	4	5	5	
	3	3	2	3	3	2	4	5	
7	1	3	2	4	7	8	6	4	
	2	6	2	4	7	7	6	4	
	3	10	2	4	7	5	5	3	
8	1	1	4	4	6	7	3	5	
	2	6	3	4	4	5	2	3	
	3	7	2	4	4	4	1	1	
9	1	1	3	5	3	6	5	4	
	2	3	3	3	2	4	3	3	
	3	4	3	3	1	1	3	2	
10	1	2	4	2	3	5	9	4	
	2	3	4	2	2	4	8	3	
	3	6	3	2	2	3	5	3	
11	1	1	2	4	7	4	5	6	
	2	5	2	2	7	3	4	4	
	3	8	1	1	7	2	4	4	
12	1	1	5	3	7	8	3	7	
	2	2	5	3	7	5	3	6	
	3	9	5	1	3	3	3	6	
13	1	2	5	3	1	5	7	1	
	2	3	5	3	1	4	4	1	
	3	4	5	3	1	2	3	1	
14	1	1	4	3	2	7	8	10	
	2	3	3	3	2	6	6	6	
	3	7	1	2	2	5	5	5	
15	1	1	3	2	4	6	3	10	
	2	2	2	2	4	4	3	4	
	3	7	2	2	3	2	1	3	
16	1	6	4	2	8	7	4	2	
	2	9	4	2	7	6	2	2	
	3	10	3	2	5	4	2	2	
17	1	2	2	5	10	4	3	7	
	2	5	2	3	9	3	1	7	
	3	7	2	3	8	2	1	5	
18	1	2	1	2	10	4	8	8	
	2	7	1	1	9	4	5	7	
	3	10	1	1	8	3	4	6	
19	1	4	4	3	10	7	8	7	
	2	9	4	3	8	4	5	7	
	3	10	4	3	8	2	4	7	
20	1	1	2	4	6	7	10	10	
	2	2	2	3	6	7	7	8	
	3	10	2	1	6	4	7	5	
21	1	1	4	4	6	7	8	8	
	2	9	3	2	4	4	5	7	
	3	10	3	1	3	1	5	7	
22	1	3	3	3	4	8	9	6	
	2	4	2	3	3	6	6	6	
	3	10	2	3	2	6	5	6	
23	1	4	1	4	4	5	6	10	
	2	5	1	3	3	3	4	9	
	3	9	1	2	3	1	3	8	
24	1	3	3	4	7	1	10	2	
	2	7	3	4	5	1	5	2	
	3	10	2	2	5	1	2	2	
25	1	2	4	4	8	9	8	4	
	2	3	3	2	5	6	4	2	
	3	5	3	2	4	5	4	2	
26	1	5	5	2	9	7	5	4	
	2	7	4	1	8	4	5	3	
	3	10	4	1	7	1	5	3	
27	1	7	4	3	8	3	2	6	
	2	9	2	3	8	2	1	6	
	3	10	2	2	6	1	1	6	
28	1	3	4	3	1	2	8	8	
	2	7	3	2	1	1	5	7	
	3	8	2	2	1	1	1	4	
29	1	4	3	4	7	3	9	6	
	2	9	2	3	7	2	6	5	
	3	10	1	2	4	1	5	4	
30	1	2	5	4	9	7	6	9	
	2	8	3	3	8	6	4	7	
	3	9	3	1	8	6	3	5	
31	1	4	4	4	3	5	5	10	
	2	7	4	3	3	5	5	10	
	3	10	3	3	1	5	5	10	
32	1	1	5	3	5	9	9	7	
	2	2	4	2	4	8	9	7	
	3	10	3	1	4	8	9	7	
33	1	3	3	3	1	5	8	7	
	2	6	3	2	1	3	4	7	
	3	10	3	1	1	3	1	7	
34	1	1	1	3	6	10	6	7	
	2	5	1	3	6	10	5	7	
	3	8	1	2	6	10	5	6	
35	1	6	3	3	7	3	6	6	
	2	7	3	3	3	3	5	2	
	3	10	3	1	2	2	4	1	
36	1	5	3	2	4	7	9	8	
	2	6	2	2	4	5	5	8	
	3	8	1	2	4	4	3	8	
37	1	5	3	2	10	9	9	3	
	2	8	3	2	10	8	9	1	
	3	10	3	1	10	8	9	1	
38	1	5	3	4	8	6	8	8	
	2	9	2	4	7	6	7	7	
	3	10	2	4	5	5	1	7	
39	1	2	1	3	7	9	7	5	
	2	3	1	3	4	9	6	3	
	3	5	1	1	4	8	4	3	
40	1	3	5	1	7	9	10	7	
	2	4	4	1	7	7	8	5	
	3	5	3	1	6	7	7	4	
41	1	5	2	4	9	8	4	5	
	2	8	2	3	5	6	2	4	
	3	10	2	2	2	4	2	2	
42	1	7	4	4	5	2	3	9	
	2	9	4	2	3	1	2	7	
	3	10	4	2	3	1	2	4	
43	1	2	2	2	7	7	7	9	
	2	6	2	2	7	6	5	8	
	3	9	2	2	4	4	3	7	
44	1	3	4	4	6	9	5	8	
	2	4	4	4	6	8	5	8	
	3	5	4	4	3	8	3	5	
45	1	4	3	1	7	9	2	2	
	2	6	3	1	6	8	2	2	
	3	7	2	1	5	8	2	2	
46	1	1	4	5	7	8	2	7	
	2	2	3	5	7	8	1	6	
	3	10	3	5	7	8	1	4	
47	1	3	2	3	5	6	2	7	
	2	4	1	2	3	5	2	3	
	3	10	1	2	2	2	2	2	
48	1	2	5	2	6	7	8	6	
	2	4	2	2	3	5	8	6	
	3	8	2	2	2	3	6	6	
49	1	1	2	2	5	3	5	2	
	2	2	2	1	5	3	4	2	
	3	6	1	1	4	3	4	2	
50	1	3	3	3	2	6	9	8	
	2	4	3	2	2	6	9	5	
	3	8	2	1	2	6	9	5	
51	1	4	5	4	6	8	5	5	
	2	6	4	4	5	7	4	4	
	3	7	3	2	3	7	2	2	
52	1	3	4	4	6	6	8	3	
	2	5	3	4	5	5	7	3	
	3	10	3	3	4	4	7	3	
53	1	4	4	2	10	10	3	8	
	2	5	4	1	9	4	3	6	
	3	7	4	1	8	4	3	5	
54	1	3	1	4	6	7	5	7	
	2	4	1	3	5	7	5	6	
	3	7	1	2	4	7	4	4	
55	1	3	1	3	2	9	7	8	
	2	4	1	3	2	6	7	6	
	3	9	1	2	2	5	6	4	
56	1	1	3	2	4	4	7	7	
	2	7	2	1	3	3	6	6	
	3	8	1	1	1	2	6	3	
57	1	2	5	4	4	10	7	6	
	2	5	5	3	3	6	6	6	
	3	6	5	2	3	4	5	6	
58	1	2	5	2	10	4	1	4	
	2	6	2	2	7	4	1	4	
	3	9	1	2	6	3	1	4	
59	1	3	4	4	3	4	9	6	
	2	9	3	3	1	3	6	4	
	3	10	3	2	1	3	3	2	
60	1	5	4	5	6	2	8	5	
	2	8	3	3	5	2	6	3	
	3	10	3	3	5	1	6	3	
61	1	1	1	5	4	4	8	5	
	2	7	1	4	2	3	4	4	
	3	8	1	4	2	1	4	4	
62	1	5	5	1	7	8	6	6	
	2	7	3	1	5	4	4	4	
	3	8	2	1	5	2	1	3	
63	1	3	3	4	2	9	9	10	
	2	4	2	4	2	7	7	9	
	3	5	2	4	2	7	7	8	
64	1	1	3	4	7	6	8	3	
	2	3	1	3	6	4	8	2	
	3	9	1	3	3	2	7	2	
65	1	1	3	4	1	8	5	10	
	2	3	3	2	1	7	3	8	
	3	5	2	1	1	5	2	8	
66	1	5	4	4	6	8	8	4	
	2	9	3	3	6	7	4	4	
	3	10	3	3	6	7	3	3	
67	1	1	1	3	2	3	1	8	
	2	9	1	1	2	3	1	7	
	3	10	1	1	2	1	1	6	
68	1	1	3	4	3	8	2	9	
	2	7	1	3	3	8	2	8	
	3	8	1	3	1	8	1	7	
69	1	1	3	2	7	9	8	4	
	2	5	3	1	4	9	8	3	
	3	9	3	1	1	9	8	1	
70	1	1	5	5	5	7	9	6	
	2	6	3	4	3	7	8	6	
	3	8	3	3	2	7	8	6	
71	1	4	4	2	10	8	3	4	
	2	5	3	2	5	8	3	3	
	3	8	2	2	1	8	1	3	
72	1	6	4	4	10	7	6	9	
	2	8	4	4	5	5	4	6	
	3	9	4	3	5	3	4	5	
73	1	4	3	5	7	6	8	6	
	2	5	3	3	6	4	7	5	
	3	10	3	3	1	4	5	4	
74	1	1	3	3	5	4	2	5	
	2	2	3	2	4	4	2	4	
	3	6	3	1	3	4	2	3	
75	1	4	1	2	9	6	5	8	
	2	6	1	1	6	4	5	7	
	3	10	1	1	4	3	5	6	
76	1	1	4	4	6	7	9	7	
	2	5	4	3	4	7	9	5	
	3	6	3	2	1	5	9	2	
77	1	1	4	5	9	7	5	7	
	2	4	4	5	4	6	4	5	
	3	8	4	5	1	5	4	2	
78	1	6	5	4	3	10	9	2	
	2	7	5	2	3	9	8	2	
	3	10	5	1	3	8	6	2	
79	1	1	5	3	5	9	3	10	
	2	8	3	2	5	6	3	7	
	3	9	1	2	3	2	1	6	
80	1	6	3	2	8	4	10	3	
	2	9	2	2	3	3	5	2	
	3	10	1	2	3	3	3	2	
81	1	1	5	4	6	9	9	3	
	2	5	3	3	5	7	6	2	
	3	6	3	1	4	7	5	1	
82	1	2	3	2	10	1	8	6	
	2	5	3	2	9	1	6	6	
	3	10	2	1	9	1	1	3	
83	1	1	2	1	5	4	7	9	
	2	3	2	1	5	3	6	9	
	3	6	1	1	5	3	6	9	
84	1	4	3	3	9	1	4	5	
	2	7	3	3	8	1	3	3	
	3	8	3	3	7	1	2	2	
85	1	4	3	5	3	9	8	8	
	2	7	2	3	2	7	8	4	
	3	8	1	3	2	3	6	3	
86	1	2	1	5	8	5	2	6	
	2	9	1	4	5	2	2	6	
	3	10	1	4	5	2	2	1	
87	1	2	3	4	7	6	7	5	
	2	4	2	3	5	5	7	3	
	3	5	2	3	4	3	7	3	
88	1	4	1	5	6	7	4	7	
	2	7	1	5	5	7	3	5	
	3	8	1	5	4	7	3	4	
89	1	4	3	4	2	9	4	5	
	2	6	2	3	2	7	4	2	
	3	7	1	3	1	5	2	2	
90	1	4	5	4	8	5	8	9	
	2	5	2	2	6	5	8	8	
	3	10	1	2	4	5	8	7	
91	1	5	5	2	7	5	9	1	
	2	8	5	2	6	4	9	1	
	3	9	5	2	4	2	7	1	
92	1	2	5	4	1	9	8	10	
	2	3	5	4	1	8	6	7	
	3	4	5	2	1	8	6	6	
93	1	4	3	3	5	7	9	5	
	2	5	3	2	4	7	7	4	
	3	6	3	2	4	6	4	4	
94	1	5	3	1	7	5	8	5	
	2	6	2	1	5	3	7	4	
	3	7	2	1	5	2	7	4	
95	1	1	3	5	7	4	9	3	
	2	2	2	4	4	3	6	3	
	3	6	1	4	3	3	5	2	
96	1	1	3	4	5	9	7	8	
	2	2	3	4	4	5	4	6	
	3	5	3	2	3	3	1	6	
97	1	5	3	4	5	8	4	4	
	2	8	2	4	5	7	4	4	
	3	10	2	4	3	5	4	2	
98	1	2	4	5	8	2	5	4	
	2	5	3	3	8	1	5	3	
	3	9	2	3	6	1	5	3	
99	1	3	4	2	9	8	10	3	
	2	4	4	1	7	7	8	3	
	3	10	4	1	7	7	5	2	
100	1	1	4	4	5	8	4	9	
	2	2	3	3	4	7	3	6	
	3	9	1	3	4	6	2	5	
101	1	4	3	4	1	9	5	5	
	2	7	3	4	1	8	5	3	
	3	10	2	3	1	7	3	3	
102	1	0	0	0	0	0	0	0	
************************************************************************

 RESOURCE AVAILABILITIES 
	R 1	R 2	N 1	N 2	N 3	N 4
	75	78	482	532	520	512

************************************************************************
